chi/examples/jobshop.fzn
array [1..2] of int: X_INTRODUCED_28 = [1,-1];
var 0..86: X_INTRODUCED_0;
var 0..86: X_INTRODUCED_1;
var 0..86: X_INTRODUCED_2;
var 0..86: X_INTRODUCED_3;
var 0..24: X_INTRODUCED_4;
var 0..86: X_INTRODUCED_5;
var 0..86: X_INTRODUCED_6;
var 0..86: X_INTRODUCED_7;
var 0..86: X_INTRODUCED_8;
var 0..28: X_INTRODUCED_9;
var 0..86: X_INTRODUCED_10;
var 0..86: X_INTRODUCED_11;
var 0..86: X_INTRODUCED_12;
var 0..86: X_INTRODUCED_13;
var 0..26: X_INTRODUCED_14;
var 0..86: X_INTRODUCED_15;
var 0..86: X_INTRODUCED_16;
var 0..86: X_INTRODUCED_17;
var 0..86: X_INTRODUCED_18;
var 0..22: X_INTRODUCED_19;
var 0..86: X_INTRODUCED_20;
var 0..86: X_INTRODUCED_21;
var 0..86: X_INTRODUCED_22;
var 0..86: X_INTRODUCED_23;
var 0..29: X_INTRODUCED_24;
var bool: X_INTRODUCED_52 ::var_is_introduced :: is_defined_var;
var bool: X_INTRODUCED_53 ::var_is_introduced :: is_defined_var;
var bool: X_INTRODUCED_54 ::var_is_introduced :: is_defined_var;
var bool: X_INTRODUCED_55 ::var_is_introduced :: is_defined_var;
var bool: X_INTRODUCED_56 ::var_is_introduced :: is_defined_var;
var bool: X_INTRODUCED_57 ::var_is_introduced :: is_defined_var;
var bool: X_INTRODUCED_58 ::var_is_introduced :: is_defined_var;
var bool: X_INTRODUCED_59 ::var_is_introduced :: is_defined_var;
var bool: X_INTRODUCED_60 ::var_is_introduced :: is_defined_var;
var bool: X_INTRODUCED_61 ::var_is_introduced :: is_defined_var;
var bool: X_INTRODUCED_62 ::var_is_introduced :: is_defined_var;
var bool: X_INTRODUCED_63 ::var_is_introduced :: is_defined_var;
var bool: X_INTRODUCED_64 ::var_is_introduced :: is_defined_var;
var bool: X_INTRODUCED_65 ::var_is_introduced :: is_defined_var;
var bool: X_INTRODUCED_66 ::var_is_introduced :: is_defined_var;
var bool: X_INTRODUCED_67 ::var_is_introduced :: is_defined_var;
var bool: X_INTRODUCED_68 ::var_is_introduced :: is_defined_var;
var bool: X_INTRODUCED_69 ::var_is_introduced :: is_defined_var;
var bool: X_INTRODUCED_70 ::var_is_introduced :: is_defined_var;
var bool: X_INTRODUCED_71 ::var_is_introduced :: is_defined_var;
var bool: X_INTRODUCED_72 ::var_is_introduced :: is_defined_var;
var bool: X_INTRODUCED_73 ::var_is_introduced :: is_defined_var;
var bool: X_INTRODUCED_74 ::var_is_introduced :: is_defined_var;
var bool: X_INTRODUCED_75 ::var_is_introduced :: is_defined_var;
var bool: X_INTRODUCED_76 ::var_is_introduced :: is_defined_var;
var bool: X_INTRODUCED_77 ::var_is_introduced :: is_defined_var;
var bool: X_INTRODUCED_78 ::var_is_introduced :: is_defined_var;
var bool: X_INTRODUCED_79 ::var_is_introduced :: is_defined_var;
var bool: X_INTRODUCED_80 ::var_is_introduced :: is_defined_var;
var bool: X_INTRODUCED_81 ::var_is_introduced :: is_defined_var;
var bool: X_INTRODUCED_82 ::var_is_introduced :: is_defined_var;
var bool: X_INTRODUCED_83 ::var_is_introduced :: is_defined_var;
var bool: X_INTRODUCED_84 ::var_is_introduced :: is_defined_var;
var bool: X_INTRODUCED_85 ::var_is_introduced :: is_defined_var;
var bool: X_INTRODUCED_86 ::var_is_introduced :: is_defined_var;
var bool: X_INTRODUCED_87 ::var_is_introduced :: is_defined_var;
var bool: X_INTRODUCED_88 ::var_is_introduced :: is_defined_var;
var bool: X_INTRODUCED_89 ::var_is_introduced :: is_defined_var;
var bool: X_INTRODUCED_90 ::var_is_introduced :: is_defined_var;
var bool: X_INTRODUCED_91 ::var_is_introduced :: is_defined_var;
var bool: X_INTRODUCED_92 ::var_is_introduced :: is_defined_var;
var bool: X_INTRODUCED_93 ::var_is_introduced :: is_defined_var;
var bool: X_INTRODUCED_94 ::var_is_introduced :: is_defined_var;
var bool: X_INTRODUCED_95 ::var_is_introduced :: is_defined_var;
var bool: X_INTRODUCED_96 ::var_is_introduced :: is_defined_var;
var bool: X_INTRODUCED_97 ::var_is_introduced :: is_defined_var;
var bool: X_INTRODUCED_98 ::var_is_introduced :: is_defined_var;
var bool: X_INTRODUCED_99 ::var_is_introduced :: is_defined_var;
var bool: X_INTRODUCED_100 ::var_is_introduced :: is_defined_var;
var bool: X_INTRODUCED_101 ::var_is_introduced :: is_defined_var;
var bool: X_INTRODUCED_102 ::var_is_introduced :: is_defined_var;
var bool: X_INTRODUCED_103 ::var_is_introduced :: is_defined_var;
var bool: X_INTRODUCED_104 ::var_is_introduced :: is_defined_var;
var bool: X_INTRODUCED_105 ::var_is_introduced :: is_defined_var;
var bool: X_INTRODUCED_106 ::var_is_introduced :: is_defined_var;
var bool: X_INTRODUCED_107 ::var_is_introduced :: is_defined_var;
var bool: X_INTRODUCED_108 ::var_is_introduced :: is_defined_var;
var bool: X_INTRODUCED_109 ::var_is_introduced :: is_defined_var;
var bool: X_INTRODUCED_110 ::var_is_introduced :: is_defined_var;
var bool: X_INTRODUCED_111 ::var_is_introduced :: is_defined_var;
var bool: X_INTRODUCED_112 ::var_is_introduced :: is_defined_var;
var bool: X_INTRODUCED_113 ::var_is_introduced :: is_defined_var;
var bool: X_INTRODUCED_114 ::var_is_introduced :: is_defined_var;
var bool: X_INTRODUCED_115 ::var_is_introduced :: is_defined_var;
var bool: X_INTRODUCED_116 ::var_is_introduced :: is_defined_var;
var bool: X_INTRODUCED_117 ::var_is_introduced :: is_defined_var;
var bool: X_INTRODUCED_118 ::var_is_introduced :: is_defined_var;
var bool: X_INTRODUCED_119 ::var_is_introduced :: is_defined_var;
var bool: X_INTRODUCED_120 ::var_is_introduced :: is_defined_var;
var bool: X_INTRODUCED_121 ::var_is_introduced :: is_defined_var;
var bool: X_INTRODUCED_122 ::var_is_introduced :: is_defined_var;
var bool: X_INTRODUCED_123 ::var_is_introduced :: is_defined_var;
var bool: X_INTRODUCED_124 ::var_is_introduced :: is_defined_var;
var bool: X_INTRODUCED_125 ::var_is_introduced :: is_defined_var;
var bool: X_INTRODUCED_126 ::var_is_introduced :: is_defined_var;
var bool: X_INTRODUCED_127 ::var_is_introduced :: is_defined_var;
var bool: X_INTRODUCED_128 ::var_is_introduced :: is_defined_var;
var bool: X_INTRODUCED_129 ::var_is_introduced :: is_defined_var;
var bool: X_INTRODUCED_130 ::var_is_introduced :: is_defined_var;
var bool: X_INTRODUCED_131 ::var_is_introduced :: is_defined_var;
var bool: X_INTRODUCED_132 ::var_is_introduced :: is_defined_var;
var bool: X_INTRODUCED_133 ::var_is_introduced :: is_defined_var;
var bool: X_INTRODUCED_134 ::var_is_introduced :: is_defined_var;
var bool: X_INTRODUCED_135 ::var_is_introduced :: is_defined_var;
var bool: X_INTRODUCED_136 ::var_is_introduced :: is_defined_var;
var bool: X_INTRODUCED_137 ::var_is_introduced :: is_defined_var;
var bool: X_INTRODUCED_138 ::var_is_introduced :: is_defined_var;
var bool: X_INTRODUCED_139 ::var_is_introduced :: is_defined_var;
var bool: X_INTRODUCED_140 ::var_is_introduced :: is_defined_var;
var bool: X_INTRODUCED_141 ::var_is_introduced :: is_defined_var;
var bool: X_INTRODUCED_142 ::var_is_introduced :: is_defined_var;
var bool: X_INTRODUCED_143 ::var_is_introduced :: is_defined_var;
var bool: X_INTRODUCED_144 ::var_is_introduced :: is_defined_var;
var bool: X_INTRODUCED_145 ::var_is_introduced :: is_defined_var;
var bool: X_INTRODUCED_146 ::var_is_introduced :: is_defined_var;
var bool: X_INTRODUCED_147 ::var_is_introduced :: is_defined_var;
var bool: X_INTRODUCED_148 ::var_is_introduced :: is_defined_var;
var bool: X_INTRODUCED_149 ::var_is_introduced :: is_defined_var;
var bool: X_INTRODUCED_150 ::var_is_introduced :: is_defined_var;
var bool: X_INTRODUCED_151 ::var_is_introduced :: is_defined_var;
array [1..25] of var int: s:: output_array([1..5,1..5]) = [X_INTRODUCED_0,X_INTRODUCED_1,X_INTRODUCED_2,X_INTRODUCED_3,X_INTRODUCED_4,X_INTRODUCED_5,X_INTRODUCED_6,X_INTRODUCED_7,X_INTRODUCED_8,X_INTRODUCED_9,X_INTRODUCED_10,X_INTRODUCED_11,X_INTRODUCED_12,X_INTRODUCED_13,X_INTRODUCED_14,X_INTRODUCED_15,X_INTRODUCED_16,X_INTRODUCED_17,X_INTRODUCED_18,X_INTRODUCED_19,X_INTRODUCED_20,X_INTRODUCED_21,X_INTRODUCED_22,X_INTRODUCED_23,X_INTRODUCED_24];
constraint int_lin_le(X_INTRODUCED_28,[X_INTRODUCED_0,X_INTRODUCED_1],-1);
constraint int_lin_le(X_INTRODUCED_28,[X_INTRODUCED_1,X_INTRODUCED_2],-4);
constraint int_lin_le(X_INTRODUCED_28,[X_INTRODUCED_2,X_INTRODUCED_3],-5);
constraint int_lin_le(X_INTRODUCED_28,[X_INTRODUCED_3,X_INTRODUCED_4],-3);
constraint int_lin_le(X_INTRODUCED_28,[X_INTRODUCED_5,X_INTRODUCED_6],-3);
constraint int_lin_le(X_INTRODUCED_28,[X_INTRODUCED_6,X_INTRODUCED_7],-2);
constraint int_lin_le(X_INTRODUCED_28,[X_INTRODUCED_7,X_INTRODUCED_8],-7);
constraint int_lin_le(X_INTRODUCED_28,[X_INTRODUCED_8,X_INTRODUCED_9],-1);
constraint int_lin_le(X_INTRODUCED_28,[X_INTRODUCED_10,X_INTRODUCED_11],-4);
constraint int_lin_le(X_INTRODUCED_28,[X_INTRODUCED_11,X_INTRODUCED_12],-4);
constraint int_lin_le(X_INTRODUCED_28,[X_INTRODUCED_12,X_INTRODUCED_13],-4);
constraint int_lin_le(X_INTRODUCED_28,[X_INTRODUCED_13,X_INTRODUCED_14],-4);
constraint int_lin_le(X_INTRODUCED_28,[X_INTRODUCED_15,X_INTRODUCED_16],-1);
constraint int_lin_le(X_INTRODUCED_28,[X_INTRODUCED_16,X_INTRODUCED_17],-1);
constraint int_lin_le(X_INTRODUCED_28,[X_INTRODUCED_17,X_INTRODUCED_18],-1);
constraint int_lin_le(X_INTRODUCED_28,[X_INTRODUCED_18,X_INTRODUCED_19],-6);
constraint int_lin_le(X_INTRODUCED_28,[X_INTRODUCED_20,X_INTRODUCED_21],-7);
constraint int_lin_le(X_INTRODUCED_28,[X_INTRODUCED_21,X_INTRODUCED_22],-3);
constraint int_lin_le(X_INTRODUCED_28,[X_INTRODUCED_22,X_INTRODUCED_23],-2);
constraint int_lin_le(X_INTRODUCED_28,[X_INTRODUCED_23,X_INTRODUCED_24],-2);
constraint array_bool_or([X_INTRODUCED_52,X_INTRODUCED_53],true);
constraint array_bool_or([X_INTRODUCED_54,X_INTRODUCED_55],true);
constraint array_bool_or([X_INTRODUCED_56,X_INTRODUCED_57],true);
constraint array_bool_or([X_INTRODUCED_59,X_INTRODUCED_58],true);
constraint array_bool_or([X_INTRODUCED_61,X_INTRODUCED_60],true);
constraint array_bool_or([X_INTRODUCED_63,X_INTRODUCED_62],true);
constraint array_bool_or([X_INTRODUCED_65,X_INTRODUCED_64],true);
constraint array_bool_or([X_INTRODUCED_67,X_INTRODUCED_66],true);
constraint array_bool_or([X_INTRODUCED_69,X_INTRODUCED_68],true);
constraint array_bool_or([X_INTRODUCED_71,X_INTRODUCED_70],true);
constraint array_bool_or([X_INTRODUCED_73,X_INTRODUCED_72],true);
constraint array_bool_or([X_INTRODUCED_75,X_INTRODUCED_74],true);
constraint array_bool_or([X_INTRODUCED_77,X_INTRODUCED_76],true);
constraint array_bool_or([X_INTRODUCED_78,X_INTRODUCED_79],true);
constraint array_bool_or([X_INTRODUCED_80,X_INTRODUCED_81],true);
constraint array_bool_or([X_INTRODUCED_82,X_INTRODUCED_83],true);
constraint array_bool_or([X_INTRODUCED_84,X_INTRODUCED_85],true);
constraint array_bool_or([X_INTRODUCED_86,X_INTRODUCED_87],true);
constraint array_bool_or([X_INTRODUCED_88,X_INTRODUCED_89],true);
constraint array_bool_or([X_INTRODUCED_90,X_INTRODUCED_91],true);
constraint array_bool_or([X_INTRODUCED_92,X_INTRODUCED_93],true);
constraint array_bool_or([X_INTRODUCED_94,X_INTRODUCED_95],true);
constraint array_bool_or([X_INTRODUCED_96,X_INTRODUCED_97],true);
constraint array_bool_or([X_INTRODUCED_98,X_INTRODUCED_99],true);
constraint array_bool_or([X_INTRODUCED_100,X_INTRODUCED_101],true);
constraint array_bool_or([X_INTRODUCED_102,X_INTRODUCED_103],true);
constraint array_bool_or([X_INTRODUCED_104,X_INTRODUCED_105],true);
constraint array_bool_or([X_INTRODUCED_106,X_INTRODUCED_107],true);
constraint array_bool_or([X_INTRODUCED_108,X_INTRODUCED_109],true);
constraint array_bool_or([X_INTRODUCED_110,X_INTRODUCED_111],true);
constraint array_bool_or([X_INTRODUCED_112,X_INTRODUCED_113],true);
constraint array_bool_or([X_INTRODUCED_114,X_INTRODUCED_115],true);
constraint array_bool_or([X_INTRODUCED_116,X_INTRODUCED_117],true);
constraint array_bool_or([X_INTRODUCED_118,X_INTRODUCED_119],true);
constraint array_bool_or([X_INTRODUCED_120,X_INTRODUCED_121],true);
constraint array_bool_or([X_INTRODUCED_122,X_INTRODUCED_123],true);
constraint array_bool_or([X_INTRODUCED_124,X_INTRODUCED_125],true);
constraint array_bool_or([X_INTRODUCED_126,X_INTRODUCED_127],true);
constraint array_bool_or([X_INTRODUCED_128,X_INTRODUCED_129],true);
constraint array_bool_or([X_INTRODUCED_130,X_INTRODUCED_131],true);
constraint array_bool_or([X_INTRODUCED_132,X_INTRODUCED_133],true);
constraint array_bool_or([X_INTRODUCED_134,X_INTRODUCED_135],true);
constraint array_bool_or([X_INTRODUCED_136,X_INTRODUCED_137],true);
constraint array_bool_or([X_INTRODUCED_138,X_INTRODUCED_139],true);
constraint array_bool_or([X_INTRODUCED_140,X_INTRODUCED_141],true);
constraint array_bool_or([X_INTRODUCED_142,X_INTRODUCED_143],true);
constraint array_bool_or([X_INTRODUCED_144,X_INTRODUCED_145],true);
constraint array_bool_or([X_INTRODUCED_146,X_INTRODUCED_147],true);
constraint array_bool_or([X_INTRODUCED_148,X_INTRODUCED_149],true);
constraint array_bool_or([X_INTRODUCED_150,X_INTRODUCED_151],true);
constraint int_lin_le_reif(X_INTRODUCED_28,[X_INTRODUCED_5,X_INTRODUCED_0],-3,X_INTRODUCED_52):: defines_var(X_INTRODUCED_52);
constraint int_lin_le_reif(X_INTRODUCED_28,[X_INTRODUCED_0,X_INTRODUCED_5],-1,X_INTRODUCED_53):: defines_var(X_INTRODUCED_53);
constraint int_lin_le_reif(X_INTRODUCED_28,[X_INTRODUCED_10,X_INTRODUCED_0],-4,X_INTRODUCED_54):: defines_var(X_INTRODUCED_54);
constraint int_lin_le_reif(X_INTRODUCED_28,[X_INTRODUCED_0,X_INTRODUCED_10],-1,X_INTRODUCED_55):: defines_var(X_INTRODUCED_55);
constraint int_lin_le_reif(X_INTRODUCED_28,[X_INTRODUCED_15,X_INTRODUCED_0],-1,X_INTRODUCED_56):: defines_var(X_INTRODUCED_56);
constraint int_lin_le_reif(X_INTRODUCED_28,[X_INTRODUCED_0,X_INTRODUCED_15],-1,X_INTRODUCED_57):: defines_var(X_INTRODUCED_57);
constraint int_lin_le_reif(X_INTRODUCED_28,[X_INTRODUCED_20,X_INTRODUCED_0],-7,X_INTRODUCED_58):: defines_var(X_INTRODUCED_58);
constraint int_lin_le_reif(X_INTRODUCED_28,[X_INTRODUCED_0,X_INTRODUCED_20],-1,X_INTRODUCED_59):: defines_var(X_INTRODUCED_59);
constraint int_lin_le_reif(X_INTRODUCED_28,[X_INTRODUCED_10,X_INTRODUCED_5],-4,X_INTRODUCED_60):: defines_var(X_INTRODUCED_60);
constraint int_lin_le_reif(X_INTRODUCED_28,[X_INTRODUCED_5,X_INTRODUCED_10],-3,X_INTRODUCED_61):: defines_var(X_INTRODUCED_61);
constraint int_lin_le_reif(X_INTRODUCED_28,[X_INTRODUCED_15,X_INTRODUCED_5],-1,X_INTRODUCED_62):: defines_var(X_INTRODUCED_62);
constraint int_lin_le_reif(X_INTRODUCED_28,[X_INTRODUCED_5,X_INTRODUCED_15],-3,X_INTRODUCED_63):: defines_var(X_INTRODUCED_63);
constraint int_lin_le_reif(X_INTRODUCED_28,[X_INTRODUCED_20,X_INTRODUCED_5],-7,X_INTRODUCED_64):: defines_var(X_INTRODUCED_64);
constraint int_lin_le_reif(X_INTRODUCED_28,[X_INTRODUCED_5,X_INTRODUCED_20],-3,X_INTRODUCED_65):: defines_var(X_INTRODUCED_65);
constraint int_lin_le_reif(X_INTRODUCED_28,[X_INTRODUCED_15,X_INTRODUCED_10],-1,X_INTRODUCED_66):: defines_var(X_INTRODUCED_66);
constraint int_lin_le_reif(X_INTRODUCED_28,[X_INTRODUCED_10,X_INTRODUCED_15],-4,X_INTRODUCED_67):: defines_var(X_INTRODUCED_67);
constraint int_lin_le_reif(X_INTRODUCED_28,[X_INTRODUCED_20,X_INTRODUCED_10],-7,X_INTRODUCED_68):: defines_var(X_INTRODUCED_68);
constraint int_lin_le_reif(X_INTRODUCED_28,[X_INTRODUCED_10,X_INTRODUCED_20],-4,X_INTRODUCED_69):: defines_var(X_INTRODUCED_69);
constraint int_lin_le_reif(X_INTRODUCED_28,[X_INTRODUCED_20,X_INTRODUCED_15],-7,X_INTRODUCED_70):: defines_var(X_INTRODUCED_70);
constraint int_lin_le_reif(X_INTRODUCED_28,[X_INTRODUCED_15,X_INTRODUCED_20],-1,X_INTRODUCED_71):: defines_var(X_INTRODUCED_71);
constraint int_lin_le_reif(X_INTRODUCED_28,[X_INTRODUCED_6,X_INTRODUCED_1],-2,X_INTRODUCED_72):: defines_var(X_INTRODUCED_72);
constraint int_lin_le_reif(X_INTRODUCED_28,[X_INTRODUCED_1,X_INTRODUCED_6],-4,X_INTRODUCED_73):: defines_var(X_INTRODUCED_73);
constraint int_lin_le_reif(X_INTRODUCED_28,[X_INTRODUCED_11,X_INTRODUCED_1],-4,X_INTRODUCED_74):: defines_var(X_INTRODUCED_74);
constraint int_lin_le_reif(X_INTRODUCED_28,[X_INTRODUCED_1,X_INTRODUCED_11],-4,X_INTRODUCED_75):: defines_var(X_INTRODUCED_75);
constraint int_lin_le_reif(X_INTRODUCED_28,[X_INTRODUCED_16,X_INTRODUCED_1],-1,X_INTRODUCED_76):: defines_var(X_INTRODUCED_76);
constraint int_lin_le_reif(X_INTRODUCED_28,[X_INTRODUCED_1,X_INTRODUCED_16],-4,X_INTRODUCED_77):: defines_var(X_INTRODUCED_77);
constraint int_lin_le_reif(X_INTRODUCED_28,[X_INTRODUCED_21,X_INTRODUCED_1],-3,X_INTRODUCED_78):: defines_var(X_INTRODUCED_78);
constraint int_lin_le_reif(X_INTRODUCED_28,[X_INTRODUCED_1,X_INTRODUCED_21],-4,X_INTRODUCED_79):: defines_var(X_INTRODUCED_79);
constraint int_lin_le_reif(X_INTRODUCED_28,[X_INTRODUCED_11,X_INTRODUCED_6],-4,X_INTRODUCED_80):: defines_var(X_INTRODUCED_80);
constraint int_lin_le_reif(X_INTRODUCED_28,[X_INTRODUCED_6,X_INTRODUCED_11],-2,X_INTRODUCED_81):: defines_var(X_INTRODUCED_81);
constraint int_lin_le_reif(X_INTRODUCED_28,[X_INTRODUCED_16,X_INTRODUCED_6],-1,X_INTRODUCED_82):: defines_var(X_INTRODUCED_82);
constraint int_lin_le_reif(X_INTRODUCED_28,[X_INTRODUCED_6,X_INTRODUCED_16],-2,X_INTRODUCED_83):: defines_var(X_INTRODUCED_83);
constraint int_lin_le_reif(X_INTRODUCED_28,[X_INTRODUCED_21,X_INTRODUCED_6],-3,X_INTRODUCED_84):: defines_var(X_INTRODUCED_84);
constraint int_lin_le_reif(X_INTRODUCED_28,[X_INTRODUCED_6,X_INTRODUCED_21],-2,X_INTRODUCED_85):: defines_var(X_INTRODUCED_85);
constraint int_lin_le_reif(X_INTRODUCED_28,[X_INTRODUCED_16,X_INTRODUCED_11],-1,X_INTRODUCED_86):: defines_var(X_INTRODUCED_86);
constraint int_lin_le_reif(X_INTRODUCED_28,[X_INTRODUCED_11,X_INTRODUCED_16],-4,X_INTRODUCED_87):: defines_var(X_INTRODUCED_87);
constraint int_lin_le_reif(X_INTRODUCED_28,[X_INTRODUCED_21,X_INTRODUCED_11],-3,X_INTRODUCED_88):: defines_var(X_INTRODUCED_88);
constraint int_lin_le_reif(X_INTRODUCED_28,[X_INTRODUCED_11,X_INTRODUCED_21],-4,X_INTRODUCED_89):: defines_var(X_INTRODUCED_89);
constraint int_lin_le_reif(X_INTRODUCED_28,[X_INTRODUCED_21,X_INTRODUCED_16],-3,X_INTRODUCED_90):: defines_var(X_INTRODUCED_90);
constraint int_lin_le_reif(X_INTRODUCED_28,[X_INTRODUCED_16,X_INTRODUCED_21],-1,X_INTRODUCED_91):: defines_var(X_INTRODUCED_91);
constraint int_lin_le_reif(X_INTRODUCED_28,[X_INTRODUCED_7,X_INTRODUCED_2],-7,X_INTRODUCED_92):: defines_var(X_INTRODUCED_92);
constraint int_lin_le_reif(X_INTRODUCED_28,[X_INTRODUCED_2,X_INTRODUCED_7],-5,X_INTRODUCED_93):: defines_var(X_INTRODUCED_93);
constraint int_lin_le_reif(X_INTRODUCED_28,[X_INTRODUCED_12,X_INTRODUCED_2],-4,X_INTRODUCED_94):: defines_var(X_INTRODUCED_94);
constraint int_lin_le_reif(X_INTRODUCED_28,[X_INTRODUCED_2,X_INTRODUCED_12],-5,X_INTRODUCED_95):: defines_var(X_INTRODUCED_95);
constraint int_lin_le_reif(X_INTRODUCED_28,[X_INTRODUCED_17,X_INTRODUCED_2],-1,X_INTRODUCED_96):: defines_var(X_INTRODUCED_96);
constraint int_lin_le_reif(X_INTRODUCED_28,[X_INTRODUCED_2,X_INTRODUCED_17],-5,X_INTRODUCED_97):: defines_var(X_INTRODUCED_97);
constraint int_lin_le_reif(X_INTRODUCED_28,[X_INTRODUCED_22,X_INTRODUCED_2],-2,X_INTRODUCED_98):: defines_var(X_INTRODUCED_98);
constraint int_lin_le_reif(X_INTRODUCED_28,[X_INTRODUCED_2,X_INTRODUCED_22],-5,X_INTRODUCED_99):: defines_var(X_INTRODUCED_99);
constraint int_lin_le_reif(X_INTRODUCED_28,[X_INTRODUCED_12,X_INTRODUCED_7],-4,X_INTRODUCED_100):: defines_var(X_INTRODUCED_100);
constraint int_lin_le_reif(X_INTRODUCED_28,[X_INTRODUCED_7,X_INTRODUCED_12],-7,X_INTRODUCED_101):: defines_var(X_INTRODUCED_101);
constraint int_lin_le_reif(X_INTRODUCED_28,[X_INTRODUCED_17,X_INTRODUCED_7],-1,X_INTRODUCED_102):: defines_var(X_INTRODUCED_102);
constraint int_lin_le_reif(X_INTRODUCED_28,[X_INTRODUCED_7,X_INTRODUCED_17],-7,X_INTRODUCED_103):: defines_var(X_INTRODUCED_103);
constraint int_lin_le_reif(X_INTRODUCED_28,[X_INTRODUCED_22,X_INTRODUCED_7],-2,X_INTRODUCED_104):: defines_var(X_INTRODUCED_104);
constraint int_lin_le_reif(X_INTRODUCED_28,[X_INTRODUCED_7,X_INTRODUCED_22],-7,X_INTRODUCED_105):: defines_var(X_INTRODUCED_105);
constraint int_lin_le_reif(X_INTRODUCED_28,[X_INTRODUCED_17,X_INTRODUCED_12],-1,X_INTRODUCED_106):: defines_var(X_INTRODUCED_106);
constraint int_lin_le_reif(X_INTRODUCED_28,[X_INTRODUCED_12,X_INTRODUCED_17],-4,X_INTRODUCED_107):: defines_var(X_INTRODUCED_107);
constraint int_lin_le_reif(X_INTRODUCED_28,[X_INTRODUCED_22,X_INTRODUCED_12],-2,X_INTRODUCED_108):: defines_var(X_INTRODUCED_108);
constraint int_lin_le_reif(X_INTRODUCED_28,[X_INTRODUCED_12,X_INTRODUCED_22],-4,X_INTRODUCED_109):: defines_var(X_INTRODUCED_109);
constraint int_lin_le_reif(X_INTRODUCED_28,[X_INTRODUCED_22,X_INTRODUCED_17],-2,X_INTRODUCED_110):: defines_var(X_INTRODUCED_110);
constraint int_lin_le_reif(X_INTRODUCED_28,[X_INTRODUCED_17,X_INTRODUCED_22],-1,X_INTRODUCED_111):: defines_var(X_INTRODUCED_111);
constraint int_lin_le_reif(X_INTRODUCED_28,[X_INTRODUCED_8,X_INTRODUCED_3],-1,X_INTRODUCED_112):: defines_var(X_INTRODUCED_112);
constraint int_lin_le_reif(X_INTRODUCED_28,[X_INTRODUCED_3,X_INTRODUCED_8],-3,X_INTRODUCED_113):: defines_var(X_INTRODUCED_113);
constraint int_lin_le_reif(X_INTRODUCED_28,[X_INTRODUCED_13,X_INTRODUCED_3],-4,X_INTRODUCED_114):: defines_var(X_INTRODUCED_114);
constraint int_lin_le_reif(X_INTRODUCED_28,[X_INTRODUCED_3,X_INTRODUCED_13],-3,X_INTRODUCED_115):: defines_var(X_INTRODUCED_115);
constraint int_lin_le_reif(X_INTRODUCED_28,[X_INTRODUCED_18,X_INTRODUCED_3],-6,X_INTRODUCED_116):: defines_var(X_INTRODUCED_116);
constraint int_lin_le_reif(X_INTRODUCED_28,[X_INTRODUCED_3,X_INTRODUCED_18],-3,X_INTRODUCED_117):: defines_var(X_INTRODUCED_117);
constraint int_lin_le_reif(X_INTRODUCED_28,[X_INTRODUCED_23,X_INTRODUCED_3],-2,X_INTRODUCED_118):: defines_var(X_INTRODUCED_118);
constraint int_lin_le_reif(X_INTRODUCED_28,[X_INTRODUCED_3,X_INTRODUCED_23],-3,X_INTRODUCED_119):: defines_var(X_INTRODUCED_119);
constraint int_lin_le_reif(X_INTRODUCED_28,[X_INTRODUCED_13,X_INTRODUCED_8],-4,X_INTRODUCED_120):: defines_var(X_INTRODUCED_120);
constraint int_lin_le_reif(X_INTRODUCED_28,[X_INTRODUCED_8,X_INTRODUCED_13],-1,X_INTRODUCED_121):: defines_var(X_INTRODUCED_121);
constraint int_lin_le_reif(X_INTRODUCED_28,[X_INTRODUCED_18,X_INTRODUCED_8],-6,X_INTRODUCED_122):: defines_var(X_INTRODUCED_122);
constraint int_lin_le_reif(X_INTRODUCED_28,[X_INTRODUCED_8,X_INTRODUCED_18],-1,X_INTRODUCED_123):: defines_var(X_INTRODUCED_123);
constraint int_lin_le_reif(X_INTRODUCED_28,[X_INTRODUCED_23,X_INTRODUCED_8],-2,X_INTRODUCED_124):: defines_var(X_INTRODUCED_124);
constraint int_lin_le_reif(X_INTRODUCED_28,[X_INTRODUCED_8,X_INTRODUCED_23],-1,X_INTRODUCED_125):: defines_var(X_INTRODUCED_125);
constraint int_lin_le_reif(X_INTRODUCED_28,[X_INTRODUCED_18,X_INTRODUCED_13],-6,X_INTRODUCED_126):: defines_var(X_INTRODUCED_126);
constraint int_lin_le_reif(X_INTRODUCED_28,[X_INTRODUCED_13,X_INTRODUCED_18],-4,X_INTRODUCED_127):: defines_var(X_INTRODUCED_127);
constraint int_lin_le_reif(X_INTRODUCED_28,[X_INTRODUCED_23,X_INTRODUCED_13],-2,X_INTRODUCED_128):: defines_var(X_INTRODUCED_128);
constraint int_lin_le_reif(X_INTRODUCED_28,[X_INTRODUCED_13,X_INTRODUCED_23],-4,X_INTRODUCED_129):: defines_var(X_INTRODUCED_129);
constraint int_lin_le_reif(X_INTRODUCED_28,[X_INTRODUCED_23,X_INTRODUCED_18],-2,X_INTRODUCED_130):: defines_var(X_INTRODUCED_130);
constraint int_lin_le_reif(X_INTRODUCED_28,[X_INTRODUCED_18,X_INTRODUCED_23],-6,X_INTRODUCED_131):: defines_var(X_INTRODUCED_131);
constraint int_lin_le_reif(X_INTRODUCED_28,[X_INTRODUCED_9,X_INTRODUCED_4],-2,X_INTRODUCED_132):: defines_var(X_INTRODUCED_132);
constraint int_lin_le_reif(X_INTRODUCED_28,[X_INTRODUCED_4,X_INTRODUCED_9],-6,X_INTRODUCED_133):: defines_var(X_INTRODUCED_133);
constraint int_lin_le_reif(X_INTRODUCED_28,[X_INTRODUCED_14,X_INTRODUCED_4],-4,X_INTRODUCED_134):: defines_var(X_INTRODUCED_134);
constraint int_lin_le_reif(X_INTRODUCED_28,[X_INTRODUCED_4,X_INTRODUCED_14],-6,X_INTRODUCED_135):: defines_var(X_INTRODUCED_135);
constraint int_lin_le_reif(X_INTRODUCED_28,[X_INTRODUCED_19,X_INTRODUCED_4],-8,X_INTRODUCED_136):: defines_var(X_INTRODUCED_136);
constraint int_lin_le_reif(X_INTRODUCED_28,[X_INTRODUCED_4,X_INTRODUCED_19],-6,X_INTRODUCED_137):: defines_var(X_INTRODUCED_137);
constraint int_lin_le_reif(X_INTRODUCED_28,[X_INTRODUCED_24,X_INTRODUCED_4],-1,X_INTRODUCED_138):: defines_var(X_INTRODUCED_138);
constraint int_lin_le_reif(X_INTRODUCED_28,[X_INTRODUCED_4,X_INTRODUCED_24],-6,X_INTRODUCED_139):: defines_var(X_INTRODUCED_139);
constraint int_lin_le_reif(X_INTRODUCED_28,[X_INTRODUCED_14,X_INTRODUCED_9],-4,X_INTRODUCED_140):: defines_var(X_INTRODUCED_140);
constraint int_lin_le_reif(X_INTRODUCED_28,[X_INTRODUCED_9,X_INTRODUCED_14],-2,X_INTRODUCED_141):: defines_var(X_INTRODUCED_141);
constraint int_lin_le_reif(X_INTRODUCED_28,[X_INTRODUCED_19,X_INTRODUCED_9],-8,X_INTRODUCED_142):: defines_var(X_INTRODUCED_142);
constraint int_lin_le_reif(X_INTRODUCED_28,[X_INTRODUCED_9,X_INTRODUCED_19],-2,X_INTRODUCED_143):: defines_var(X_INTRODUCED_143);
constraint int_lin_le_reif(X_INTRODUCED_28,[X_INTRODUCED_24,X_INTRODUCED_9],-1,X_INTRODUCED_144):: defines_var(X_INTRODUCED_144);
constraint int_lin_le_reif(X_INTRODUCED_28,[X_INTRODUCED_9,X_INTRODUCED_24],-2,X_INTRODUCED_145):: defines_var(X_INTRODUCED_145);
constraint int_lin_le_reif(X_INTRODUCED_28,[X_INTRODUCED_19,X_INTRODUCED_14],-8,X_INTRODUCED_146):: defines_var(X_INTRODUCED_146);
constraint int_lin_le_reif(X_INTRODUCED_28,[X_INTRODUCED_14,X_INTRODUCED_19],-4,X_INTRODUCED_147):: defines_var(X_INTRODUCED_147);
constraint int_lin_le_reif(X_INTRODUCED_28,[X_INTRODUCED_24,X_INTRODUCED_14],-1,X_INTRODUCED_148):: defines_var(X_INTRODUCED_148);
constraint int_lin_le_reif(X_INTRODUCED_28,[X_INTRODUCED_14,X_INTRODUCED_24],-4,X_INTRODUCED_149):: defines_var(X_INTRODUCED_149);
constraint int_lin_le_reif(X_INTRODUCED_28,[X_INTRODUCED_24,X_INTRODUCED_19],-1,X_INTRODUCED_150):: defines_var(X_INTRODUCED_150);
constraint int_lin_le_reif(X_INTRODUCED_28,[X_INTRODUCED_19,X_INTRODUCED_24],-8,X_INTRODUCED_151):: defines_var(X_INTRODUCED_151);
solve  satisfy;
